
Log started (V11.0.0) Fri May 16 18:58:46 2008

Tried aggregator 1 time.
Reduced MIP has 240 rows, 8001 columns, and 16040 nonzeros.
Presolve time =    0.06 sec.
Clique table members: 200.
MIP emphasis: balance optimality and feasibility.
MIP search method: dynamic search.
Parallel mode: none, using 1 thread.
Root relaxation solution time =    0.34 sec.

        Nodes                                         Cuts/
   Node  Left     Objective  IInf  Best Integer     Best Node    ItCnt     Gap

*     0+    0                        21965.0000      500.8492      565   97.72%
*     0+    0                          503.0000      500.8492      565    0.43%
      0     0      501.0000    65      503.0000      Fract: 6      597    0.40%
      0     0      502.0000    61      503.0000     Covers: 1      657    0.20%
      0     0      502.0000    71      503.0000     Covers: 3      674    0.20%
      0     0      502.0000    67      503.0000     Covers: 1      676    0.20%
      0     0      502.0000    64      503.0000     Covers: 1      678    0.20%
      0     2      502.0000    64      503.0000      502.0000      678    0.20%
    100    12      502.0000    59      503.0000      502.0000    14933    0.20%
    200    32      502.0000    56      503.0000      502.0000    29393    0.20%
    300    79      502.0000    67      503.0000      502.0000    34579    0.20%
    400   109      502.0000    65      503.0000      502.0000    48629    0.20%

Cover cuts applied:  5

Solution pool: 2 solutions saved.

MIP - Integer optimal solution:  Objective = 5.0300000000e+002
Solution time =   28.27 sec.  Iterations = 57103  Nodes = 478 (144)


Incumbent solution
Variable Name           Solution Value
Cmax                        503.000000
X_1_13                        1.000000
X_2_29                        1.000000
X_3_9                         1.000000
X_4_2                         1.000000
X_5_19                        1.000000
X_6_36                        1.000000
X_7_25                        1.000000
X_8_3                         1.000000
X_9_40                        1.000000
X_10_7                        1.000000
X_11_8                        1.000000
X_12_10                       1.000000
X_13_1                        1.000000
X_14_37                       1.000000
X_15_6                        1.000000
X_16_9                        1.000000
X_17_28                       1.000000
X_18_31                       1.000000
X_19_22                       1.000000
X_20_26                       1.000000
X_21_13                       1.000000
X_22_12                       1.000000
X_23_27                       1.000000
X_24_14                       1.000000
X_25_11                       1.000000
X_26_39                       1.000000
X_27_5                        1.000000
X_28_4                        1.000000
X_29_14                       1.000000
X_30_12                       1.000000
X_31_17                       1.000000
X_32_18                       1.000000
X_33_16                       1.000000
X_34_21                       1.000000
X_35_15                       1.000000
X_36_15                       1.000000
X_37_6                        1.000000
X_38_35                       1.000000
X_39_3                        1.000000
X_40_23                       1.000000
X_41_23                       1.000000
X_42_13                       1.000000
X_43_1                        1.000000
X_44_33                       1.000000
X_45_22                       1.000000
X_46_3                        1.000000
X_47_30                       1.000000
X_48_32                       1.000000
X_49_1                        1.000000
X_50_24                       1.000000
X_51_19                       1.000000
X_52_3                        1.000000
X_53_39                       1.000000
X_54_16                       1.000000
X_55_34                       1.000000
X_56_32                       1.000000
X_57_23                       1.000000
X_58_30                       1.000000
X_59_15                       1.000000
X_60_17                       1.000000
X_61_4                        1.000000
X_62_36                       1.000000
X_63_4                        1.000000
X_64_29                       1.000000
X_65_30                       1.000000
X_66_18                       1.000000
X_67_11                       1.000000
X_68_4                        1.000000
X_69_19                       1.000000
X_70_34                       1.000000
X_71_8                        1.000000
X_72_27                       1.000000
X_73_28                       1.000000
X_74_40                       1.000000
X_75_34                       1.000000
X_76_21                       1.000000
X_77_38                       1.000000
X_78_16                       1.000000
X_79_35                       1.000000
X_80_3                        1.000000
X_81_31                       1.000000
X_82_25                       1.000000
X_83_8                        1.000000
X_84_20                       1.000000
X_85_34                       1.000000
X_86_23                       1.000000
X_87_37                       1.000000
X_88_17                       1.000000
X_89_19                       1.000000
X_90_15                       1.000000
X_91_33                       1.000000
X_92_10                       1.000000
X_93_5                        1.000000
X_94_37                       1.000000
X_95_1                        1.000000
X_96_7                        1.000000
X_97_8                        1.000000
X_98_26                       1.000000
X_99_32                       1.000000
X_100_19                      1.000000
X_101_30                      1.000000
X_102_22                      1.000000
X_103_39                      1.000000
X_104_32                      1.000000
X_105_27                      1.000000
X_106_20                      1.000000
X_107_13                      1.000000
X_108_26                      1.000000
X_109_18                      1.000000
X_110_20                      1.000000
X_111_33                      1.000000
X_112_14                      1.000000
X_113_20                      1.000000
X_114_11                      1.000000
X_115_18                      1.000000
X_116_24                      1.000000
X_117_36                      1.000000
X_118_7                       1.000000
X_119_8                       1.000000
X_120_18                      1.000000
X_121_9                       1.000000
X_122_2                       1.000000
X_123_6                       1.000000
X_124_24                      1.000000
X_125_6                       1.000000
X_126_28                      1.000000
X_127_38                      1.000000
X_128_35                      1.000000
X_129_29                      1.000000
X_130_21                      1.000000
X_131_40                      1.000000
X_132_37                      1.000000
X_133_10                      1.000000
X_134_5                       1.000000
X_135_21                      1.000000
X_136_2                       1.000000
X_137_33                      1.000000
X_138_40                      1.000000
X_139_17                      1.000000
X_140_25                      1.000000
X_141_26                      1.000000
X_142_24                      1.000000
X_143_29                      1.000000
X_144_28                      1.000000
X_145_2                       1.000000
X_146_12                      1.000000
X_147_39                      1.000000
X_148_15                      1.000000
X_149_27                      1.000000
X_150_7                       1.000000
X_151_10                      1.000000
X_152_10                      1.000000
X_153_34                      1.000000
X_154_36                      1.000000
X_155_12                      1.000000
X_156_31                      1.000000
X_157_16                      1.000000
X_158_13                      1.000000
X_159_9                       1.000000
X_160_1                       1.000000
X_161_22                      1.000000
X_162_16                      1.000000
X_163_35                      1.000000
X_164_36                      1.000000
X_165_27                      1.000000
X_166_14                      1.000000
X_167_26                      1.000000
X_168_39                      1.000000
X_169_21                      1.000000
X_170_30                      1.000000
X_171_6                       1.000000
X_172_24                      1.000000
X_173_17                      1.000000
X_174_38                      1.000000
X_175_35                      1.000000
X_176_40                      1.000000
X_177_12                      1.000000
X_178_11                      1.000000
X_179_37                      1.000000
X_180_5                       1.000000
X_181_22                      1.000000
X_182_25                      1.000000
X_183_5                       1.000000
X_184_11                      1.000000
X_185_4                       1.000000
X_186_31                      1.000000
X_187_31                      1.000000
X_188_38                      1.000000
X_189_20                      1.000000
X_190_28                      1.000000
X_191_33                      1.000000
X_192_7                       1.000000
X_193_32                      1.000000
X_194_14                      1.000000
X_195_38                      1.000000
X_196_25                      1.000000
X_197_9                       1.000000
X_198_29                      1.000000
X_199_2                       1.000000
X_200_23                      1.000000
All other variables in the range 1-8001 are 0.
